c User generated cnf file
p cnf 7 29
-4 5 6 0 
2 -6 1 0 
-5 5 7 0 
6 -3 5 0 
-2 7 4 0 
3 4 -1 0 
4 6 -1 0 
5 4 -5 0 
5 -5 5 0 
1 -6 1 0 
-1 6 3 0 
2 -4 1 0 
4 4 -2 0 
3 -3 5 0 
5 3 -4 0 
-3 2 4 0 
5 7 -3 0 
7 4 -3 0 
-1 2 6 0 
6 -6 1 0 
1 -4 4 0 
4 -6 7 0 
7 3 -5 0 
4 4 -7 0 
5 -4 6 0 
3 3 -6 0 
1 7 -2 0 
-5 4 1 0 
-3 3 2 0 
